c FILE: i080-104

c SOURCE: From steinlib

c DESCRIPTION: Steinlib instance with 80 nodes and 120 edges.

p edge 80 120
e 1 14
e 1 15
e 1 61
e 1 62
e 2 23
e 2 38
e 2 66
e 3 53
e 3 69
e 4 45
e 5 12
e 5 39
e 6 15
e 6 17
e 6 60
e 6 68
e 6 70
e 7 19
e 7 44
e 7 49
e 8 29
e 8 36
e 8 57
e 9 30
e 9 46
e 9 62
e 10 32
e 10 42
e 11 24
e 11 44
e 12 66
e 13 18
e 13 61
e 13 62
e 14 25
e 14 39
e 14 51
e 14 52
e 14 74
e 14 79
e 15 22
e 15 30
e 15 45
e 15 80
e 16 33
e 16 50
e 17 56
e 17 64
e 17 73
e 18 28
e 18 65
e 18 67
e 18 76
e 19 43
e 20 25
e 20 41
e 20 77
e 20 80
e 21 50
e 21 51
e 21 80
e 22 79
e 23 61
e 24 31
e 24 61
e 24 68
e 25 29
e 25 57
e 26 41
e 26 79
e 27 35
e 27 60
e 28 75
e 29 61
e 30 46
e 30 48
e 30 58
e 30 65
e 30 71
e 31 39
e 31 69
e 31 76
e 32 73
e 33 62
e 34 52
e 36 55
e 36 61
e 37 74
e 38 40
e 38 78
e 39 50
e 39 78
e 39 79
e 40 69
e 41 76
e 44 59
e 44 61
e 44 74
e 45 66
e 45 67
e 46 70
e 47 70
e 48 69
e 49 54
e 50 63
e 50 71
e 51 68
e 52 53
e 53 80
e 54 80
e 55 60
e 55 62
e 56 75
e 59 65
e 59 68
e 62 64
e 65 69
e 66 76
e 68 72
e 75 80
